50
16527

40 602
719 917
45 457
393 753
166 752
648 717
400 199
836 873
66 249
753 474
621 655
979 519
485 615
421 326
237 86
468 535
792 493
4 777
857 476
654 923
721 429
958 548
953 204
885 859
395 590
938 246
953 326
505 810
227 914
268 600
918 99
244 32
220 759
852 246
633 989
207 403
358 884
683 410
27 194
981 805
195 412
969 486
551 437
549 461
785 18
5 230
22 934
514 27
601 665
271 794
